Version identifier: 12.10.0.0 | 2019-11-26 | 843d4de
CPXPARAM_WorkMem                                 28672
Tried aggregator 2 times.
MIP Presolve eliminated 24 rows and 0 columns.
MIP Presolve added 48 rows and 0 columns.
Aggregator did 60 substitutions.
Reduced MIP has 126 rows, 110 columns, and 502 nonzeros.
Reduced MIP has 110 binaries, 0 generals, 0 SOSs, and 0 indicators.
Presolve time = 0,00 sec. (1,14 ticks)
Found incumbent of value 475,000000 after 0,00 sec. (1,29 ticks)
Probing time = 0,00 sec. (0,70 ticks)
Tried aggregator 1 time.
Detecting symmetries...
Reduced MIP has 126 rows, 110 columns, and 502 nonzeros.
Reduced MIP has 110 binaries, 0 generals, 0 SOSs, and 0 indicators.
Presolve time = 0,00 sec. (0,44 ticks)
Probing time = 0,00 sec. (0,69 ticks)
Clique table members: 411.
MIP emphasis: balance optimality and feasibility.
MIP search method: dynamic search.
Parallel mode: deterministic, using up to 16 threads.
Root relaxation solution time = 0,00 sec. (0,30 ticks)

        Nodes                                         Cuts/
   Node  Left     Objective  IInf  Best Integer    Best Bound    ItCnt     Gap

*     0+    0                          475,0000        0,0000           100,00%
*     0+    0                          465,0000        0,0000           100,00%
*     0+    0                          439,0000        0,0000           100,00%
*     0+    0                          410,0000        0,0000           100,00%
      0     0      264,0000   110      410,0000      264,0000       46   35,61%
      0     0      265,5000   110      410,0000      Cuts: 59       63   35,24%
      0     0      272,0000   110      410,0000      Cuts: 39       93   33,66%
      0     0      272,3375   110      410,0000  ZeroHalf: 22      114   33,58%
      0     0      272,8667   110      410,0000     Cuts: 131      125   33,45%
      0     0      272,9691   110      410,0000      Cuts: 22      138   33,42%
Detecting symmetries...
      0     0      273,2000   110      410,0000      Cuts: 71      140   33,37%
      0     0      273,3417   110      410,0000   ZeroHalf: 9      144   33,33%
      0     0      273,5208   110      410,0000  ZeroHalf: 20      154   33,29%
      0     0      273,6840   110      410,0000  ZeroHalf: 19      162   33,25%
      0     0      273,8766   110      410,0000   ZeroHalf: 8      169   33,20%
      0     0      274,2157   110      410,0000      Cuts: 79      180   33,12%
      0     0      274,2361   110      410,0000   ZeroHalf: 3      185   33,11%
      0     0      274,2869   110      410,0000     Cuts: 131      193   33,10%
      0     0      274,5667   110      410,0000      Cuts: 64      204   33,03%
      0     0      274,6755   110      410,0000   ZeroHalf: 7      215   33,01%
      0     0      274,9625   110      410,0000      Cuts: 12      231   32,94%
      0     0      275,0346   110      410,0000   ZeroHalf: 6      242   32,92%
      0     0      275,1261   110      410,0000      Cuts: 52      251   32,90%
      0     0      275,2146   110      410,0000   ZeroHalf: 8      260   32,87%
      0     0      275,3530   110      410,0000      Cuts: 36      272   32,84%
      0     0      275,3991   110      410,0000      Cuts: 65      280   32,83%
      0     0        cutoff            410,0000      410,0000      280    0,00%
Elapsed time = 0,08 sec. (55,86 ticks, tree = 0,01 MB, solutions = 4)

Cover cuts applied:  5
Mixed integer rounding cuts applied:  29
Zero-half cuts applied:  14
Gomory fractional cuts applied:  2

Root node processing (before b&c):
  Real time             =    0,08 sec. (55,87 ticks)
Parallel b&c, 16 threads:
  Real time             =    0,00 sec. (0,00 ticks)
  Sync time (average)   =    0,00 sec.
  Wait time (average)   =    0,00 sec.
                          ------------
Total (root+branch&cut) =    0,08 sec. (55,87 ticks)
